Eth(GGA:TOP)/Al(001)-2x2
Eth/Al(001)
 &input
    ibrav     =  6,
    celldm(1) =  10.84758,
    celldm(3) =   4.21,
    nat       =  32,
    ntyp      =   3,

    ecut(1) = 27.0D0,
    dual    = 8.0D0,
    beta(1) = 0.5D+00,
    tr2     = 1.0D-13,
    upscale = 30.0D0,
    degauss = 0.03D0,
    ngauss  = 1,

    lforce  = .T., 
    epsf    = 1.0D-3,

    iswitch = 1,
    niter   = 60,
    nstep   = 50,
    iprint  = 1,
    isolve  = 0,

    pseudop(1) = 'Al3s3pPBEKB.RRKJ3',
    pseudop(2) = 'C2s2pUSPBE.RRKJ3',
    pseudop(3) = 'HUSPBE.RRKJ3',

    tmp_dir    = '/scratch/tone/eth-ag001/',
    pseudo_dir = '/u/sists022/KOKALJ/pw/pseudo/',
    filpun     = 'S5-4x4.pun',
    output_pot = 'S5-4x4.pot',
/&end
   0.5000000000     0.6158883806     1.3180    2
   0.6616002334     0.7158629261     1.3180    3
   0.3383997666     0.7158629261     1.3180    3
   0.5000000000     0.3841116194     1.3180    2
   0.6616002334     0.2841370739     1.3180    3
   0.3383997666     0.2841370739     1.3180    3

   0.5000000000     0.5000000000     .7083029015    1
   0.5000000000     0.0000000000     .7083029015    1
   0.0000000000     0.5000000000     .7083029015    1
   0.0000000000     0.0000000000     .7083029015    1

  -0.2500000000    -0.2500000000     .353002976    1
  -0.2500000000     0.2500000000     .353002976    1
   0.2500000000    -0.2500000000     .353002976    1
   0.2500000000     0.2500000000     .353002976    1

   0.5000000000     0.5000000000     0.0000000000    1
   0.5000000000     0.0000000000     0.0000000000    1
   0.0000000000     0.5000000000     0.0000000000    1
   0.0000000000     0.0000000000     0.0000000000    1

   0.2500000000     0.2500000000    -.353002976    1
   0.2500000000    -0.2500000000    -.353002976    1
  -0.2500000000     0.2500000000    -.353002976    1
  -0.2500000000    -0.2500000000    -.353002976    1

  -0.5000000000    -0.5000000000    -.7083029015    1
  -0.5000000000     0.0000000000    -.7083029015    1
   0.0000000000    -0.5000000000    -.7083029015    1
   0.0000000000     0.0000000000    -.7083029015    1

   0.5000000000     0.6158883806     -1.3180    2
   0.6616002334     0.7158629261     -1.3180    3
   0.3383997666     0.7158629261     -1.3180    3
   0.5000000000     0.3841116194     -1.3180    2
   0.6616002334     0.2841370739     -1.3180    3
   0.3383997666     0.2841370739     -1.3180    3

'Al'    1      1    1D0
'C '    1      2    1D0
'H '    1      3    1D0
0
4 4 1
1 1 1
