 &control
    calculation = 'nscf'
    restart_mode='from_scratch',
    prefix='SSMoMoSS',
    pseudo_dir = './',
    outdir='./tmp'
    tprnfor = .true., tstress=.true.
 /
  &system
    ibrav= 0, nat= 6, ntyp= 2,
    ecutwfc = 30.0, ecutrho = 240.0, nbnd=20,
    occupations='smearing', smearing='gauss', degauss=0.01, 
/
  &electrons
    mixing_mode = 'plain'
    mixing_beta = 0.3
    conv_thr =  1.0d-6
    mixing_fixed_ns = 0 
/
CELL_PARAMETERS
3.170841 0.016158 -0.219126 
-0.011973 5.508152 0.218269 
-0.293847 0.558833 7.265195 
ATOMIC_SPECIES
 S   32.06   S.pbe-mt_fhi.UPF
 Mo   95.94   Mo.pbe-mt_fhi.UPF
ATOMIC_POSITIONS {crystal}
 S  2.834481 0.964907 5.692818
 S  1.236447 3.711578 5.908734
 Mo  1.345455 5.486376 7.542644
 Mo  -0.239012 2.724942 7.540781
 S  -0.124598 0.825872 9.027473
 S  1.451582 3.587726 9.025505
K_POINTS {automatic}
2 2 2 0 0 0